NAME          ClpDefau  FREE
ROWS
 N  OBJROW
 L  ZMUNI1_PCT
 L  ZMUNI2_PCT
 L  ZMUNI3_PCT
 L  ZMUNI4_PCT
 L  ZMUNI5_PCT
 L  ZMUNI6_PCT
 L  ZMUNI7_PCT
 L  ZMUNI8_PCT
 L  ZMUNI9_PCT
COLUMNS
    QMUNI1 OBJROW 1.          
    QMUNI1 ZMUNI1_PCT 28029.10805 
    QMUNI1 ZMUNI2_PCT 1761.05499  
    QMUNI1 ZMUNI3_PCT 4240.2267   
    QMUNI1 ZMUNI4_PCT 3077.951074 
    QMUNI1 ZMUNI5_PCT 178.6232    
    QMUNI1 ZMUNI6_PCT 296.68808   
    QMUNI1 ZMUNI7_PCT 1518.2495   
    QMUNI1 ZMUNI8_PCT 1256.3705   
    QMUNI1 ZMUNI9_PCT 514.2212    
    QMUNI2 OBJROW 1.          
    QMUNI2 ZMUNI1_PCT 1943.30215  
    QMUNI2 ZMUNI2_PCT 33110.14175 
    QMUNI2 ZMUNI3_PCT 2753.9253   
    QMUNI2 ZMUNI4_PCT 2876.04332  
    QMUNI2 ZMUNI5_PCT 334.54895   
    QMUNI2 ZMUNI6_PCT 363.6837    
    QMUNI2 ZMUNI7_PCT 1214.7904   
    QMUNI2 ZMUNI8_PCT 1502.6092   
    QMUNI2 ZMUNI9_PCT 1452.5414   
    QMUNI3 OBJROW 1.          
    QMUNI3 ZMUNI1_PCT 4338.59825  
    QMUNI3 ZMUNI2_PCT 2783.29849  
    QMUNI3 ZMUNI3_PCT 29562.8547  
    QMUNI3 ZMUNI4_PCT 5226.609111 
    QMUNI3 ZMUNI5_PCT 351.33362   
    QMUNI3 ZMUNI6_PCT 444.22149   
    QMUNI3 ZMUNI7_PCT 1687.4314   
    QMUNI3 ZMUNI8_PCT 1697.5403   
    QMUNI3 ZMUNI9_PCT 1122.6654   
    QMUNI4 OBJROW 1.          
    QMUNI4 ZMUNI1_PCT 3242.1112   
    QMUNI4 ZMUNI2_PCT 2965.35492  
    QMUNI4 ZMUNI3_PCT 5451.8699   
    QMUNI4 ZMUNI4_PCT 102429.68798
    QMUNI4 ZMUNI5_PCT 138.18741   
    QMUNI4 ZMUNI6_PCT 188.82751   
    QMUNI4 ZMUNI7_PCT 1018.1427   
    QMUNI4 ZMUNI8_PCT 1074.6002   
    QMUNI4 ZMUNI9_PCT 653.0762    
    QMUNI5 OBJROW 1.          
    QMUNI5 ZMUNI1_PCT 418.23387   
    QMUNI5 ZMUNI2_PCT 230.59845   
    QMUNI5 ZMUNI3_PCT 354.0039    
    QMUNI5 ZMUNI4_PCT 280.529261  
    QMUNI5 ZMUNI5_PCT 32601.73797 
    QMUNI5 ZMUNI6_PCT 3309.82208  
    QMUNI5 ZMUNI7_PCT 730.7053    
    QMUNI5 ZMUNI8_PCT 564.9566    
    QMUNI5 ZMUNI9_PCT 395.5841    
    QMUNI6 OBJROW 1.          
    QMUNI6 ZMUNI1_PCT 531.29196   
    QMUNI6 ZMUNI2_PCT 289.24942   
    QMUNI6 ZMUNI3_PCT 432.682     
    QMUNI6 ZMUNI4_PCT 323.393941  
    QMUNI6 ZMUNI5_PCT 3278.25546  
    QMUNI6 ZMUNI6_PCT 31160.06851 
    QMUNI6 ZMUNI7_PCT 931.7398    
    QMUNI6 ZMUNI8_PCT 715.8279    
    QMUNI6 ZMUNI9_PCT 535.6789    
    QMUNI7 OBJROW 1.          
    QMUNI7 ZMUNI1_PCT 1811.12289  
    QMUNI7 ZMUNI2_PCT 1118.94607  
    QMUNI7 ZMUNI3_PCT 1621.437    
    QMUNI7 ZMUNI4_PCT 1267.412305 
    QMUNI7 ZMUNI5_PCT 712.96692   
    QMUNI7 ZMUNI6_PCT 916.5287    
    QMUNI7 ZMUNI7_PCT 27448.6542  
    QMUNI7 ZMUNI8_PCT 2845.0012   
    QMUNI7 ZMUNI9_PCT 1199.5316   
    QMUNI8 OBJROW 1.          
    QMUNI8 ZMUNI1_PCT 1025.86746  
    QMUNI8 ZMUNI2_PCT 870.41855   
    QMUNI8 ZMUNI3_PCT 1048.9463   
    QMUNI8 ZMUNI4_PCT 820.356608  
    QMUNI8 ZMUNI5_PCT  -101.75705 
    QMUNI8 ZMUNI6_PCT  -61.60736  
    QMUNI8 ZMUNI7_PCT 1842.8803   
    QMUNI8 ZMUNI8_PCT 25577.8312  
    QMUNI8 ZMUNI9_PCT 947.2847    
    QMUNI9 OBJROW 1.          
    QMUNI9 ZMUNI1_PCT 610.58998   
    QMUNI9 ZMUNI2_PCT 931.83517   
    QMUNI9 ZMUNI3_PCT 716.2094    
    QMUNI9 ZMUNI4_PCT 622.832775  
    QMUNI9 ZMUNI5_PCT 382.4234    
    QMUNI9 ZMUNI6_PCT 367.64145   
    QMUNI9 ZMUNI7_PCT 781.4408    
    QMUNI9 ZMUNI8_PCT 1274.4903   
    QMUNI9 ZMUNI9_PCT 24500.8469  
RHS
    RHS ZMUNI1_PCT 0.6355128149
    RHS ZMUNI2_PCT 0.8584433665
    RHS ZMUNI3_PCT 1.0875353595
    RHS ZMUNI4_PCT  -0.47039709
    RHS ZMUNI5_PCT 1.3860149597
    RHS ZMUNI6_PCT 1.006957959 
    RHS ZMUNI7_PCT 1.7873220145
    RHS ZMUNI8_PCT 1.6047145446
    RHS ZMUNI9_PCT 1.2053857288
BOUNDS
 LO BOUND QMUNI1 -0.001144463
 UP BOUND QMUNI1      1.1e+10
 LO BOUND QMUNI2 -0.000829429
 UP BOUND QMUNI2      1.1e+10
 LO BOUND QMUNI3 -0.000897563
 UP BOUND QMUNI3      1.1e+10
 LO BOUND QMUNI4 -0.000309703
 UP BOUND QMUNI4      1.1e+10
 LO BOUND QMUNI5 -0.000759891
 UP BOUND QMUNI5      1.1e+10
 LO BOUND QMUNI6 -0.000935948
 UP BOUND QMUNI6      1.1e+10
 LO BOUND QMUNI7 -0.000634946
 UP BOUND QMUNI7      1.1e+10
 LO BOUND QMUNI8 -0.000725188
 UP BOUND QMUNI8      1.1e+10
 LO BOUND QMUNI9 -0.000814377
 UP BOUND QMUNI9      1.1e+10
ENDATA
